NAME : d198
COMMENT : Drilling
TYPE : TOUR
DIMENSION : 198
TOUR_LENGTH : 16141
ERROR : 0.0228771
TOUR_SECTION
115
120
121
114
91
78
90
79
62
48
47
49
63
77
75
76
64
74
96
97
87
69
72
83
86
98
99
85
84
70
68
57
56
41
42
58
67
71
66
59
54
55
43
37
13
14
39
40
12
11
10
9
8
7
4
3
2
5
6
1
0
15
16
17
18
19
20
23
21
22
28
27
29
31
30
36
35
32
33
26
25
24
34
38
46
50
51
45
52
61
44
53
60
65
73
82
81
88
89
95
80
94
93
100
101
92
102
103
104
113
112
111
105
106
110
109
108
107
166
167
181
182
180
176
174
175
172
173
177
179
183
184
178
193
194
197
196
195
185
192
191
186
190
187
188
189
170
171
165
164
163
162
150
149
144
143
136
135
128
127
126
169
125
168
124
130
131
129
132
134
133
139
140
142
141
146
145
148
147
152
160
161
151
159
158
157
156
155
154
153
138
137
123
122
119
118
117
116
-1
EOF
